Problem:    08
Rows:       5
Columns:    8
Non-zeros:  19
Status:     OPTIMAL
Objective:  z = 649600 (MINimum)

   No.   Row name   St   Activity     Lower bound   Upper bound    Marginal
------ ------------ -- ------------- ------------- ------------- -------------
     1 Flow_conservation[2]
                    NS           300           300             =            36 
     2 Flow_conservation[3]
                    NS           500           500             =          3036 
     3 Flow_conservation[4]
                    NS           400           400             =            38 
     4 Primo_periodo
                    NS           200           200             =            34 
     5 z            B         649600                             

   No. Column name  St   Activity     Lower bound   Upper bound    Marginal
------ ------------ -- ------------- ------------- ------------- -------------
     1 x[2]         B            500             0           500 
     2 x[3]         NU           300             0           300         -3004 
     3 x[4]         B            400             0           500 
     4 x[1]         B            200             0           400 
     5 s[1]         NL             0             0                        1998 
     6 s[2]         B            200             0               
     7 s[3]         NL             0             0                        4998 
     8 s[4]         NL             0             0                        3038 

Karush-Kuhn-Tucker optimality conditions:

KKT.PE: max.abs.err = 0.00e+00 on row 0
        max.rel.err = 0.00e+00 on row 0
        High quality

KKT.PB: max.abs.err = 0.00e+00 on row 0
        max.rel.err = 0.00e+00 on row 0
        High quality

KKT.DE: max.abs.err = 0.00e+00 on column 0
        max.rel.err = 0.00e+00 on column 0
        High quality

KKT.DB: max.abs.err = 0.00e+00 on row 0
        max.rel.err = 0.00e+00 on row 0
        High quality

End of output
